Route #1: 85 2 17 69 105 64 94 57 82
Route #2: 74 99 11 34 72 29 96
Route #3: 21 67 83 77 54 13 40 31 63
Route #4: 45 100 51 60 87 76 44
Route #5: 53 103 101 28 93 97 43 15
Route #6: 14 58 88 91 36 8 48 49
Route #7: 7 75 84 9 12 104 1
Route #8: 62 26 90 24 102 92 5
Route #9: 22 52 33
Route #10: 78 19 27 37 79 71 46 66
Route #11: 56 20 16 10 41 18 86
Route #12: 35 73 32 3 23 42 30 89 59
Route #13: 39 50 81 6 70 4 98 55
Route #14: 25 47 61 80 65 38 95 68
